/*********************************************
 * OPL 20.1.0.0 Data
 * Author: utente
 * Creation Date: 13 dic 2022 at 16:54:22
 *********************************************/

 corsi = {"RO","AE","PO","MA"};
  giorni= {"LU","MA","ME","GI","VE","SA"};
  
  m=[11, 6, 10, 8];
  g=[9, 9, 9, 9, 9, 4];
  
 